# Solution for model GasLib-40
# Objective value = 1.3939550767612234e+01
loadshed[innode_1] 0
loadshed[innode_2] 0
loadshed[innode_3] 0
loadshed[innode_4] 0
loadshed[innode_5] 0
loadshed[innode_6] 0
loadshed[innode_7] 0
loadshed[innode_8] 0
loadshed[source_1] -2.2064401862699046e-01
loadshed[source_2] -4.9824800489957966e-02
loadshed[source_3] 3.5864344290493533e-01
loadshed[sink_1] 0
loadshed[sink_2] 0
loadshed[sink_3] 0
loadshed[sink_4] 0
loadshed[sink_5] 0
loadshed[sink_6] 0
loadshed[sink_7] 0
loadshed[sink_8] 0
loadshed[sink_9] 0
loadshed[sink_10] 0
loadshed[sink_11] 0
loadshed[sink_12] 8.5235469661832763e-01
loadshed[sink_13] 0
loadshed[sink_14] 0
loadshed[sink_15] 0
loadshed[sink_16] 0
loadshed[sink_17] 0
loadshed[sink_18] 0
loadshed[sink_19] 0
loadshed[sink_20] 0
loadshed[sink_21] 0
loadshed[sink_22] 0
loadshed[sink_23] 0
loadshed[sink_24] 0
loadshed[sink_25] 0
loadshed[sink_26] 0
loadshed[sink_27] 0
loadshed[sink_28] 0
loadshed[sink_29] 0
flow[source_1,sink_3] 1.9297195197252387e+02
flow[innode_1,sink_16] 1.6354166666666970e+01
flow[innode_6,sink_13] 1.3086930400922187e+01
flow[sink_13,sink_14] -3.2672362657444811e+00
flow[sink_14,sink_10] -1.9621402932411229e+01
flow[sink_25,sink_26] 2.3137294923238852e+02
flow[sink_26,sink_9] 1.3324794923238787e+02
flow[sink_9,sink_18] 1.1689378256572120e+02
flow[sink_26,sink_4] 8.1770833333333883e+01
flow[sink_4,sink_20] 2.2254966320280683e+01
flow[sink_18,sink_6] 1.0053961589905452e+02
flow[sink_25,innode_8] -1.6026361863918751e+02
flow[sink_6,sink_7] 5.1477115899054439e+01
flow[sink_6,sink_22] 3.2708333333333641e+01
flow[sink_7,sink_24] 3.5122949232387768e+01
flow[sink_22,sink_1] 1.6354166666666970e+01
flow[sink_24,sink_21] 18.7687825657211
flow[sink_21,sink_12] 2.4146158990544331e+00
flow[sink_7,sink_5] 0
flow[sink_5,sink_17] -1.6354166666667197e+01
flow[sink_17,sink_4] -4.3161700346386510e+01
flow[sink_17,sink_8] 1.0453367013052610e+01
flow[sink_3,sink_23] 16.3541666666697
flow[sink_8,sink_20] -5.9007996536140581e+00
flow[sink_25,sink_20] 0
flow[sink_25,sink_15] -1.0055042766078968e+02
flow[sink_15,sink_29] -6.4900337035394656e+01
flow[sink_29,sink_28] 1.6354166666667879e+01
flow[sink_29,sink_2] 68.3584239587284
flow[sink_2,sink_15] 5.2004257292061723e+01
flow[sink_29,innode_7] -1.6596709432745760e+02
flow[innode_4,sink_19] 1.0139223626575796e+02
flow[sink_19,innode_3] 3.3517454716420183e+01
flow[innode_4,innode_5] 0
flow[sink_27,innode_5] 0
flow[sink_27,sink_19] -1.6354166666679703e+01
flow[sink_10,sink_11] 3.2708333333333641e+01
flow[sink_10,innode_2] -3.5166448215991394e+01
flow[sink_10,innode_3] -3.3517454716420183e+01
flow[innode_6,sink_25] -1.3086930400922187e+01
flow[sink_11,innode_1] 1.6354166666666970e+01
flow[sink_19,innode_2] 3.5166448215991394e+01
flow[source_3,innode_4] 1.0139223626575796e+02
flow[source_2,innode_7] 1.6596709432745760e+02
flow[sink_3,innode_8] 1.6026361863918751e+02
pressure[innode_1] 74.895198821977
pressure[innode_2] 7.6905592159983684e+01
pressure[innode_3] 7.6831371551954177e+01
pressure[innode_4] 81.01325
pressure[innode_5] 81.01325
pressure[innode_6] 7.4185134384858429e+01
pressure[innode_7] 81.01325
pressure[innode_8] 8.0368218482513484e+01
pressure[source_1] 81.01325
pressure[source_2] 81.01325
pressure[source_3] 81.01325
pressure[sink_1] 4.0899089625884315e+01
pressure[sink_2] 7.4842684376050315e+01
pressure[sink_3] 8.0368218482513484e+01
pressure[sink_4] 4.7493118065854809e+01
pressure[sink_5] 44.6253529945687
pressure[sink_6] 4.3000167236271686e+01
pressure[sink_7] 4.2293509137850734e+01
pressure[sink_8] 4.5449187505341271e+01
pressure[sink_9] 4.9914439783170558e+01
pressure[sink_10] 7.5046900129580550e+01
pressure[sink_11] 74.895198821977
pressure[sink_12] 1.0132499999999991e+00
pressure[sink_13] 7.4112988324587377e+01
pressure[sink_14] 7.4118835322191927e+01
pressure[sink_15] 7.4672901937545433e+01
pressure[sink_16] 7.3873548987159324e+01
pressure[sink_17] 4.5843620199923450e+01
pressure[sink_18] 4.5684874326552006e+01
pressure[sink_19] 7.6905592159983684e+01
pressure[sink_20] 4.5860390256653282e+01
pressure[sink_21] 1.8725024893264841e+00
pressure[sink_22] 4.1962858768239329e+01
pressure[sink_23] 80.2035004708537
pressure[sink_24] 2.0803493179631118e+00
pressure[sink_25] 7.4185134384858429e+01
pressure[sink_26] 5.7889673448219192e+01
pressure[sink_27] 7.6554462162840181e+01
pressure[sink_28] 7.6278998128468373e+01
pressure[sink_29] 7.6574280402085549e+01
interdiction[source_1,sink_3] 0
interdiction[innode_1,sink_16] 0
interdiction[innode_6,sink_13] 0
interdiction[sink_13,sink_14] 0
interdiction[sink_14,sink_10] 0
interdiction[sink_25,sink_26] 0
interdiction[sink_26,sink_9] 0
interdiction[sink_9,sink_18] 0
interdiction[sink_26,sink_4] 0
interdiction[sink_4,sink_20] 0
interdiction[sink_18,sink_6] 0
interdiction[sink_25,innode_8] 0
interdiction[sink_6,sink_7] 0
interdiction[sink_6,sink_22] 0
interdiction[sink_7,sink_24] 0
interdiction[sink_22,sink_1] 0
interdiction[sink_24,sink_21] 0
interdiction[sink_21,sink_12] 0
interdiction[sink_7,sink_5] 1
interdiction[sink_5,sink_17] 0
interdiction[sink_17,sink_4] 0
interdiction[sink_17,sink_8] 0
interdiction[sink_3,sink_23] 0
interdiction[sink_8,sink_20] 0
interdiction[sink_25,sink_20] 1
interdiction[sink_25,sink_15] 0
interdiction[sink_15,sink_29] 0
interdiction[sink_29,sink_28] 0
interdiction[sink_29,sink_2] 0
interdiction[sink_2,sink_15] 0
interdiction[sink_29,innode_7] 0
interdiction[innode_4,sink_19] 0
interdiction[sink_19,innode_3] 0
interdiction[innode_4,innode_5] 0
interdiction[sink_27,innode_5] 1
interdiction[sink_27,sink_19] 0
interdiction[sink_10,sink_11] 0
interdiction[sink_10,innode_2] 0
interdiction[sink_10,innode_3] 0
interdiction[innode_6,sink_25] 0
interdiction[sink_11,innode_1] 0
interdiction[sink_19,innode_2] 0
interdiction[source_3,innode_4] 0
interdiction[source_2,innode_7] 0
interdiction[sink_3,innode_8] 0
WCcheckFlow[source_1,sink_3] 39
WCcheckFlow[innode_1,sink_16] 1
WCcheckFlow[innode_6,sink_13] 13
WCcheckFlow[sink_13,sink_14] 12
WCcheckFlow[sink_14,sink_10] 11
WCcheckFlow[sink_25,sink_26] 15
WCcheckFlow[sink_26,sink_9] 9
WCcheckFlow[sink_9,sink_18] 8
WCcheckFlow[sink_26,sink_4] 5
WCcheckFlow[sink_4,sink_20] 1
WCcheckFlow[sink_18,sink_6] 7
WCcheckFlow[sink_25,innode_8] -36
WCcheckFlow[sink_6,sink_7] 4
WCcheckFlow[sink_6,sink_22] 2
WCcheckFlow[sink_7,sink_24] 3
WCcheckFlow[sink_22,sink_1] 1
WCcheckFlow[sink_24,sink_21] 2
WCcheckFlow[sink_21,sink_12] 1
WCcheckFlow[sink_7,sink_5] 0
WCcheckFlow[sink_5,sink_17] -1
WCcheckFlow[sink_17,sink_4] -3
WCcheckFlow[sink_17,sink_8] 1
WCcheckFlow[sink_3,sink_23] 1
WCcheckFlow[sink_8,sink_20] 0
WCcheckFlow[sink_25,sink_20] 0
WCcheckFlow[sink_25,sink_15] 6
WCcheckFlow[sink_15,sink_29] 5
WCcheckFlow[sink_29,sink_28] 1
WCcheckFlow[sink_29,sink_2] 1
WCcheckFlow[sink_2,sink_15] 0
WCcheckFlow[sink_29,innode_7] 2
WCcheckFlow[innode_4,sink_19] -3
WCcheckFlow[sink_19,innode_3] -5
WCcheckFlow[innode_4,innode_5] 1
WCcheckFlow[sink_27,innode_5] 0
WCcheckFlow[sink_27,sink_19] -1
WCcheckFlow[sink_10,sink_11] 3
WCcheckFlow[sink_10,innode_2] 1
WCcheckFlow[sink_10,innode_3] 6
WCcheckFlow[innode_6,sink_25] -14
WCcheckFlow[sink_11,innode_1] 2
WCcheckFlow[sink_19,innode_2] 0
WCcheckFlow[source_3,innode_4] -1
WCcheckFlow[source_2,innode_7] -1
WCcheckFlow[sink_3,innode_8] 37
